Traveling Salesman Problem/TSP_generados/Aleatorio1620390940_9.tsp
NAME: Aleatorio1620390940_9.tsp
COMMENT: Randomly generated scenario
TYPE: TSP
DIMENSION: 9
EDGE_WEIGHT_TYPE: ATT
NODE_COORD_SECTION
1 21.53 25.81
2 8.11 4.2
3 45.24 18.31
4 31.91 24.29
5 30.25 36.6
6 14.25 27.72
7 7.82 25.46
8 19.0 49.4
9 20.96 0.19
